100 90519

 450 558
523 50
871 678
354 106
986 216
658 658
597 923
100 425
616 72
948 988
558 842
556 785
278 759
693 446
699 925
990 186
626 70
491 974
255 150
381 246
892 774
542 538
264 935
610 652
825 99
879 910
329 278
115 563
276 663
488 944
281 455
275 104
773 946
843 601
719 653
896 725
328 233
211 394
727 501
923 695
552 251
992 521
26 79
27 52
702 898
83 921
896 781
946 226
682 51
413 186
167 34
700 803
169 742
801 131
979 632
229 443
979 838
609 759
367 432
528 704
791 497
647 403
538 323
864 210
524 615
72 329
645 372
106 460
732 133
885 835
965 651
689 121
282 606
133 452
534 965
975 129
269 91
412 604
673 575
619 29
791 722
865 524
747 333
18 297
754 130
117 293
798 173
794 720
144 944
717 24
551 99
929 406
666 356
688 139
961 503
753 826
422 174
898 29
369 931
646 496
